NAME: dataset10
TYPE: TSP
COMMENT: 10 random locations
DIMENSION: 10
EDGE_WEIGHT_TYPE: EUC_2D
NODE_COORD_SECTION
1 253.4031413613 150.4317789292
2 45.7343887423 414.2469470828
3 252.8583992964 288.0329094989
4 181.0017271157 32.6297273527
5 36.0598065084 39.2077607114
6 84.7599164927 69.3346190935
7 226.1924009701 12.6655152562
8 154.1162924583 50.3375120540
9 109.8625707357 253.3750869868
10 382.7386692382 377.6119402985
EOF
